c Random 8-CNF over 30 variables and 60 clauses
c Generated with `cnfgen`
c (C) 2012-2016 Massimo Lauria <lauria.massimo@gmail.com>
c https://massimolauria.github.io/cnfgen
c
c COMMAND LINE: cnfgen --output tmp-8-30-60.dimacs --output-format dimacs randkcnf 8 30 60
c
c sdimacs generated by gen-sdimacs
c
p cnf 30 60
r 0.5 1 2 3 4 5 6 7 8 9 10 11 12 13 14 15 0
e  16 17 18 19 20 21 22 23 24 25 26 27 28 29 30 0
1 -2 -4 -7 -10 -18 -22 -25 0
6 -8 -9 -11 -13 -15 25 -27 0
4 -7 -8 10 13 21 23 -28 0
5 8 11 -14 16 17 20 -21 0
6 -8 10 -15 19 -20 22 -27 0
-4 -8 -10 -13 -16 -17 18 26 0
4 5 -13 -15 -23 24 29 30 0
-1 -2 -15 18 19 23 -26 27 0
1 7 8 12 -14 -17 26 28 0
-4 -5 -10 14 -16 17 -19 -28 0
3 4 -6 12 -16 26 -27 29 0
-7 -11 12 18 -24 26 28 29 0
-5 6 -7 -9 16 -22 25 26 0
-1 2 6 13 -15 -22 -24 -26 0
2 -12 -14 -17 23 24 -27 -29 0
1 -4 7 -11 -14 15 -20 -27 0
-5 -11 -16 17 18 21 -22 26 0
2 5 6 9 -11 14 28 -29 0
-4 -5 -6 8 -9 12 -22 -27 0
5 -7 9 -10 11 -15 17 -28 0
2 3 -10 11 16 24 -29 -30 0
4 9 -10 16 17 24 -27 -30 0
8 -10 18 -19 -20 -23 24 -26 0
-4 -6 -7 -8 14 16 -23 -28 0
-1 -5 12 19 20 -27 -29 30 0
16 -17 -22 23 24 25 -27 28 0
1 -5 -7 16 -18 19 26 27 0
-1 -2 9 15 19 26 29 -30 0
-1 -9 10 -11 -14 16 -20 28 0
-8 -11 12 13 -22 -27 28 -29 0
5 -6 -10 13 14 15 17 -18 0
-5 -6 11 -14 16 18 -24 -28 0
-2 5 13 -15 17 -18 -25 -28 0
2 -10 -13 -18 19 -27 -28 -29 0
-3 -7 -10 -11 12 -21 23 -24 0
1 -4 13 14 17 -20 29 -30 0
3 4 -12 -18 19 -20 -29 30 0
1 -2 16 21 -25 27 -29 -30 0
-3 19 21 -23 -24 -25 -28 29 0
-2 -5 -6 -10 21 22 -26 -30 0
-2 -4 -13 15 -16 19 -25 -26 0
2 -4 -9 15 16 20 24 -25 0
5 -10 11 15 -22 -25 -27 -30 0
2 4 -5 9 -11 15 -18 28 0
2 -6 7 8 -13 15 19 -25 0
-3 7 -13 14 15 18 -22 -28 0
1 3 -7 -8 -12 14 24 -25 0
-2 3 9 -16 -17 22 24 26 0
-4 11 -12 19 22 23 26 29 0
-5 -9 10 12 19 23 -24 30 0
1 -4 -5 -7 -24 25 26 28 0
1 5 6 8 10 -15 -24 25 0
4 7 8 -13 17 -19 -25 27 0
-3 4 -6 -8 13 17 -18 -19 0
-3 4 -10 12 17 19 -25 29 0
-4 12 13 21 -24 25 -27 -28 0
4 11 13 14 17 20 -26 29 0
-3 4 7 12 -16 21 22 -27 0
-1 2 -4 5 -8 -11 -23 28 0
2 -8 20 -21 -22 -23 25 -28 0
